27
1 0 21
2 0 8
2 1 12
3 0 17
3 1 7
3 2 7
4 0 17
4 1 5
4 2 10
4 3 24
5 0 9
5 1 4
5 2 18
5 3 14
5 4 18
6 0 10
6 1 20
6 2 9
6 3 11
6 4 24
6 5 1
7 0 20
7 1 7
7 2 16
7 3 17
7 4 5
7 5 17
7 6 18
8 0 18
8 1 7
8 2 7
8 3 12
8 4 21
8 5 22
8 6 22
8 7 6
9 0 6
9 1 7
9 2 10
9 3 19
9 4 10
9 5 21
9 6 17
9 7 16
9 8 6
10 0 19
10 1 4
10 2 17
10 3 8
10 4 16
10 5 7
10 6 12
10 7 1
10 8 12
10 9 3
11 0 20
11 1 19
11 2 1
11 3 21
11 4 21
11 5 17
11 6 20
11 7 21
11 8 10
11 9 19
11 10 17
12 0 20
12 1 8
12 2 16
12 3 2
12 4 10
12 5 8
12 6 22
12 7 11
12 8 15
12 9 9
12 10 21
12 11 18
13 0 20
13 1 18
13 2 19
13 3 17
13 4 9
13 5 4
13 6 2
13 7 4
13 8 14
13 9 15
13 10 3
13 11 3
13 12 1
14 0 3
14 1 9
14 2 23
14 3 4
14 4 24
14 5 13
14 6 2
14 7 13
14 8 18
14 9 9
14 10 19
14 11 8
14 12 19
14 13 10
15 0 9
15 1 8
15 2 3
15 3 10
15 4 14
15 5 15
15 6 22
15 7 5
15 8 24
15 9 22
15 10 21
15 11 5
15 12 3
15 13 13
15 14 12
16 0 7
16 1 21
16 2 20
16 3 17
16 4 22
16 5 17
16 6 24
16 7 12
16 8 9
16 9 13
16 10 15
16 11 10
16 12 9
16 13 4
16 14 5
16 15 12
17 0 16
17 1 12
17 2 4
17 3 9
17 4 21
17 5 13
17 6 8
17 7 20
17 8 11
17 9 15
17 10 2
17 11 14
17 12 23
17 13 16
17 14 5
17 15 1
17 16 6
18 0 11
18 1 13
18 2 9
18 3 21
18 4 23
18 5 20
18 6 9
18 7 16
18 8 12
18 9 3
18 10 8
18 11 7
18 12 7
18 13 1
18 14 20
18 15 21
18 16 23
18 17 18
19 0 1
19 1 24
19 2 5
19 3 21
19 4 7
19 5 7
19 6 2
19 7 6
19 8 5
19 9 15
19 10 23
19 11 5
19 12 24
19 13 12
19 14 16
19 15 16
19 16 6
19 17 19
19 18 2
20 0 2
20 1 5
20 2 23
20 3 4
20 4 4
20 5 9
20 6 16
20 7 15
20 8 4
20 9 8
20 10 2
20 11 23
20 12 18
20 13 15
20 14 16
20 15 3
20 16 23
20 17 2
20 18 5
20 19 3
21 0 14
21 1 17
21 2 16
21 3 1
21 4 8
21 5 2
21 6 20
21 7 20
21 8 6
21 9 23
21 10 11
21 11 2
21 12 12
21 13 12
21 14 14
21 15 16
21 16 7
21 17 10
21 18 12
21 19 23
21 20 13
22 0 11
22 1 18
22 2 17
22 3 24
22 4 21
22 5 5
22 6 21
22 7 6
22 8 24
22 9 13
22 10 21
22 11 8
22 12 18
22 13 4
22 14 14
22 15 15
22 16 24
22 17 11
22 18 19
22 19 6
22 20 10
22 21 7
23 0 9
23 1 14
23 2 19
23 3 24
23 4 17
23 5 19
23 6 1
23 7 14
23 8 5
23 9 7
23 10 15
23 11 3
23 12 7
23 13 23
23 14 17
23 15 20
23 16 22
23 17 24
23 18 17
23 19 23
23 20 11
23 21 8
23 22 19
24 0 7
24 1 24
24 2 3
24 3 7
24 4 16
24 5 15
24 6 2
24 7 17
24 8 24
24 9 18
24 10 24
24 11 9
24 12 6
24 13 16
24 14 7
24 15 10
24 16 22
24 17 9
24 18 1
24 19 23
24 20 10
24 21 18
24 22 7
24 23 9
25 0 3
25 1 15
25 2 4
25 3 14
25 4 20
25 5 3
25 6 4
25 7 20
25 8 12
25 9 4
25 10 22
25 11 6
25 12 21
25 13 21
25 14 21
25 15 1
25 16 16
25 17 5
25 18 2
25 19 4
25 20 4
25 21 8
25 22 22
25 23 12
25 24 5
26 0 11
26 1 9
26 2 7
26 3 14
26 4 15
26 5 23
26 6 2
26 7 10
26 8 23
26 9 3
26 10 18
26 11 19
26 12 24
26 13 23
26 14 13
26 15 5
26 16 9
26 17 21
26 18 19
26 19 12
26 20 2
26 21 23
26 22 16
26 23 8
26 24 24
26 25 24
